(set-logic QF_LRA)
(set-info :ran/ran_4_1.smt2)
(set-info :smt-lib-version 2.0)
(declare-fun x0 () Real)
(declare-fun x1 () Real)
(declare-fun x2 () Real)
(declare-fun x3 () Real)
(define-fun ie0 () Bool (<= (+ (* (- 59) x1) (* 19 x3) (* (- 8) x1) (* 74 x2) (* 24 x0) (* (- 45) x0) (* (- 90) x0) (* 87 x3) ) 82))
(define-fun ie1 () Bool (<= (+ (* (- 62) x3) (* (- 1) x1) (* (- 41) x0) (* (- 18) x3) (* (- 50) x3) (* 98 x3) (* (- 9) x3) ) 16))
(define-fun ie2 () Bool (<= (+ (* 90 x0) (* (- 24) x0) (* 27 x0) (* (- 51) x2) (* (- 83) x3) (* 22 x0) (* 86 x0) ) (- 60)))
(define-fun ie3 () Bool (<= (+ (* (- 29) x3) (* 98 x3) (* (- 72) x0) (* 62 x2) (* (- 57) x0) (* 49 x2) (* 3 x1) ) 45))
(define-fun ie4 () Bool (<= (+ (* 78 x1) (* (- 90) x1) (* 73 x3) (* 91 x2) (* (- 29) x2) (* (- 2) x1) (* (- 82) x3) ) (- 66)))
(define-fun ie5 () Bool (<= (+ (* (- 22) x0) (* 73 x2) (* (- 36) x3) (* 36 x3) (* (- 53) x1) ) 94))
(define-fun ie6 () Bool (<= (+ (* (- 45) x3) (* 96 x1) (* 12 x3) (* (- 58) x1) (* (- 82) x1) (* 80 x1) (* 47 x2) ) (- 49)))
(define-fun ie7 () Bool (<= (+ (* (- 83) x1) (* (- 92) x0) (* (- 79) x1) ) 6))
(assert ie0)
(assert ie1)
(assert ie2)
(assert ie3)
(assert ie4)
(assert ie5)
(assert ie6)
(assert ie7)
(check-sat)
(exit)
